\ Generated by MPModelProtoExporter
\   Name             : SCIP
\   Format           : Free
\   Constraints      : 30
\   Variables        : 210
\     Binary         : 210
\     Integer        : 0
\     Continuous     : 0
Minimize
 Obj: +34 x[0,0] +36 x[1,0] +82 x[2,0] +9 x[3,0] +84 x[4,0] +98 x[5,0] +52 x[6,0] +32 x[7,0] +91 x[8,0] +99 x[9,0] +84 x[10,0] +80 x[11,0] +7 x[12,0] +94 x[13,0] +84 x[14,0] +30 x[15,0] +13 x[16,0] +24 x[17,0] +60 x[18,0] +11 x[19,0] +78 x[0,1] +73 x[1,1] +64 x[2,1] +10 x[3,1] +72 x[4,1] +8 x[6,1] +63 x[7,1] +27 x[8,1] +81 x[9,1] +86 x[10,1] +99 x[11,1] +37 x[12,1] +1 x[13,1] +53 x[16,1] +47 x[17,1] +20 x[18,1] +58 x[19,1] +31 x[0,2] +11 x[1,2] +81 x[2,2] +63 x[3,2] +77 x[4,2] +89 x[5,2] +63 x[6,2] +70 x[7,2] +60 x[8,2] +58 x[9,2] +63 x[10,2] +99 x[11,2] +12 x[12,2] +80 x[13,2] +40 x[14,2] +74 x[15,2] +32 x[16,2] +28 x[17,2] +53 x[18,2] +6 x[19,2] +70 x[0,3] +99 x[1,3] +74 x[2,3] +80 x[3,3] +81 x[4,3] +11 x[5,3] +56 x[6,3] +61 x[7,3] +43 x[8,3] +12 x[9,3] +60 x[10,3] +41 x[11,3] +75 x[12,3] +12 x[13,3] +27 x[14,3] +26 x[15,3] +64 x[16,3] +7 x[17,3] +28 x[18,3] +31 x[19,3] +45 x[0,4] +32 x[1,4] +6 x[2,4] +78 x[3,4] +92 x[4,4] +90 x[5,4] +74 x[6,4] +22 x[7,4] +26 x[8,4] +95 x[9,4] +72 x[10,4] +53 x[11,4] +46 x[12,4] +11 x[13,4] +72 x[14,4] +50 x[15,4] +69 x[16,4] +98 x[17,4] +30 x[18,4] +88 x[19,4] +9 x[0,5] +35 x[1,5] +62 x[2,5] +97 x[3,5] +85 x[4,5] +16 x[5,5] +29 x[6,5] +32 x[7,5] +81 x[8,5] +19 x[9,5] +79 x[10,5] +45 x[11,5] +49 x[12,5] +20 x[13,5] +82 x[14,5] +56 x[15,5] +50 x[16,5] +11 x[17,5] +30 x[18,5] +94 x[19,5] +50 x[0,6] +81 x[1,6] +61 x[2,6] +45 x[3,6] +61 x[4,6] +90 x[5,6] +82 x[6,6] +42 x[7,6] +40 x[8,6] +5 x[9,6] +47 x[10,6] +45 x[11,6] +14 x[12,6] +31 x[13,6] +68 x[14,6] +67 x[15,6] +41 x[16,6] +44 x[17,6] +4 x[18,6] +88 x[19,6] +22 x[0,7] +92 x[1,7] +87 x[2,7] +17 x[3,7] +81 x[4,7] +45 x[5,7] +53 x[6,7] +21 x[7,7] +44 x[8,7] +10 x[9,7] +32 x[10,7] +30 x[11,7] +3 x[12,7] +89 x[13,7] +18 x[14,7] +76 x[15,7] +20 x[16,7] +32 x[17,7] +74 x[18,7] +94 x[19,7] +70 x[0,8] +64 x[1,8] +51 x[2,8] +9 x[3,8] +63 x[4,8] +55 x[5,8] +69 x[6,8] +17 x[7,8] +18 x[8,8] +80 x[9,8] +76 x[10,8] +33 x[11,8] +40 x[12,8] +65 x[13,8] +23 x[14,8] +43 x[15,8] +86 x[16,8] +81 x[17,8] +47 x[18,8] +81 x[19,8] +25 x[0,9] +26 x[1,9] +36 x[2,9] +47 x[3,9] +85 x[4,9] +90 x[5,9] +83 x[6,9] +83 x[7,9] +3 x[8,9] +95 x[9,9] +58 x[10,9] +21 x[11,9] +37 x[12,9] +57 x[13,9] +21 x[14,9] +53 x[15,9] +37 x[16,9] +88 x[17,9] +7 x[18,9] +27 x[19,9] +840 y[0] +789 y[1] +1090 y[2] +739 y[3] +563 y[4] +207 y[5] +671 y[6] +834 y[7] +300 y[8] +437 y[9] 
Subject to
 auto_c_000000000: +1 x[0,0] +1 x[0,1] +1 x[0,2] +1 x[0,3] +1 x[0,4] +1 x[0,5] +1 x[0,6] +1 x[0,7] +1 x[0,8] +1 x[0,9]  = 1
 auto_c_000000001: +1 x[1,0] +1 x[1,1] +1 x[1,2] +1 x[1,3] +1 x[1,4] +1 x[1,5] +1 x[1,6] +1 x[1,7] +1 x[1,8] +1 x[1,9]  = 1
 auto_c_000000002: +1 x[2,0] +1 x[2,1] +1 x[2,2] +1 x[2,3] +1 x[2,4] +1 x[2,5] +1 x[2,6] +1 x[2,7] +1 x[2,8] +1 x[2,9]  = 1
 auto_c_000000003: +1 x[3,0] +1 x[3,1] +1 x[3,2] +1 x[3,3] +1 x[3,4] +1 x[3,5] +1 x[3,6] +1 x[3,7] +1 x[3,8] +1 x[3,9]  = 1
 auto_c_000000004: +1 x[4,0] +1 x[4,1] +1 x[4,2] +1 x[4,3] +1 x[4,4] +1 x[4,5] +1 x[4,6] +1 x[4,7] +1 x[4,8] +1 x[4,9]  = 1
 auto_c_000000005: +1 x[5,0] +1 x[5,1] +1 x[5,2] +1 x[5,3] +1 x[5,4] +1 x[5,5] +1 x[5,6] +1 x[5,7] +1 x[5,8] +1 x[5,9]  = 1
 auto_c_000000006: +1 x[6,0] +1 x[6,1] +1 x[6,2] +1 x[6,3] +1 x[6,4] +1 x[6,5] +1 x[6,6] +1 x[6,7] +1 x[6,8] +1 x[6,9]  = 1
 auto_c_000000007: +1 x[7,0] +1 x[7,1] +1 x[7,2] +1 x[7,3] +1 x[7,4] +1 x[7,5] +1 x[7,6] +1 x[7,7] +1 x[7,8] +1 x[7,9]  = 1
 auto_c_000000008: +1 x[8,0] +1 x[8,1] +1 x[8,2] +1 x[8,3] +1 x[8,4] +1 x[8,5] +1 x[8,6] +1 x[8,7] +1 x[8,8] +1 x[8,9]  = 1
 auto_c_000000009: +1 x[9,0] +1 x[9,1] +1 x[9,2] +1 x[9,3] +1 x[9,4] +1 x[9,5] +1 x[9,6] +1 x[9,7] +1 x[9,8] +1 x[9,9]  = 1
 auto_c_000000010: +1 x[10,0] +1 x[10,1] +1 x[10,2] +1 x[10,3] +1 x[10,4] +1 x[10,5] +1 x[10,6] +1 x[10,7] +1 x[10,8] +1 x[10,9]  = 1
 auto_c_000000011: +1 x[11,0] +1 x[11,1] +1 x[11,2] +1 x[11,3] +1 x[11,4] +1 x[11,5] +1 x[11,6] +1 x[11,7] +1 x[11,8] +1 x[11,9]  = 1
 auto_c_000000012: +1 x[12,0] +1 x[12,1] +1 x[12,2] +1 x[12,3] +1 x[12,4] +1 x[12,5] +1 x[12,6] +1 x[12,7] +1 x[12,8] +1 x[12,9]  = 1
 auto_c_000000013: +1 x[13,0] +1 x[13,1] +1 x[13,2] +1 x[13,3] +1 x[13,4] +1 x[13,5] +1 x[13,6] +1 x[13,7] +1 x[13,8] +1 x[13,9]  = 1
 auto_c_000000014: +1 x[14,0] +1 x[14,1] +1 x[14,2] +1 x[14,3] +1 x[14,4] +1 x[14,5] +1 x[14,6] +1 x[14,7] +1 x[14,8] +1 x[14,9]  = 1
 auto_c_000000015: +1 x[15,0] +1 x[15,1] +1 x[15,2] +1 x[15,3] +1 x[15,4] +1 x[15,5] +1 x[15,6] +1 x[15,7] +1 x[15,8] +1 x[15,9]  = 1
 auto_c_000000016: +1 x[16,0] +1 x[16,1] +1 x[16,2] +1 x[16,3] +1 x[16,4] +1 x[16,5] +1 x[16,6] +1 x[16,7] +1 x[16,8] +1 x[16,9]  = 1
 auto_c_000000017: +1 x[17,0] +1 x[17,1] +1 x[17,2] +1 x[17,3] +1 x[17,4] +1 x[17,5] +1 x[17,6] +1 x[17,7] +1 x[17,8] +1 x[17,9]  = 1
 auto_c_000000018: +1 x[18,0] +1 x[18,1] +1 x[18,2] +1 x[18,3] +1 x[18,4] +1 x[18,5] +1 x[18,6] +1 x[18,7] +1 x[18,8] +1 x[18,9]  = 1
 auto_c_000000019: +1 x[19,0] +1 x[19,1] +1 x[19,2] +1 x[19,3] +1 x[19,4] +1 x[19,5] +1 x[19,6] +1 x[19,7] +1 x[19,8] +1 x[19,9]  = 1
 auto_c_000000020: +27 x[0,0] +35 x[1,0] +11 x[2,0] +11 x[3,0] +32 x[4,0] +28 x[5,0] +34 x[6,0] +33 x[7,0] +6 x[8,0] +23 x[9,0] +26 x[10,0] +22 x[11,0] +27 x[12,0] +24 x[13,0] +11 x[14,0] +22 x[15,0] +21 x[16,0] +15 x[17,0] +17 x[18,0] +30 x[19,0] -111 y[0]  <= 0
 auto_c_000000021: +27 x[0,1] +35 x[1,1] +11 x[2,1] +11 x[3,1] +32 x[4,1] +28 x[5,1] +34 x[6,1] +33 x[7,1] +6 x[8,1] +23 x[9,1] +26 x[10,1] +22 x[11,1] +27 x[12,1] +24 x[13,1] +11 x[14,1] +22 x[15,1] +21 x[16,1] +15 x[17,1] +17 x[18,1] +30 x[19,1] -76 y[1]  <= 0
 auto_c_000000022: +27 x[0,2] +35 x[1,2] +11 x[2,2] +11 x[3,2] +32 x[4,2] +28 x[5,2] +34 x[6,2] +33 x[7,2] +6 x[8,2] +23 x[9,2] +26 x[10,2] +22 x[11,2] +27 x[12,2] +24 x[13,2] +11 x[14,2] +22 x[15,2] +21 x[16,2] +15 x[17,2] +17 x[18,2] +30 x[19,2] -76 y[2]  <= 0
 auto_c_000000023: +27 x[0,3] +35 x[1,3] +11 x[2,3] +11 x[3,3] +32 x[4,3] +28 x[5,3] +34 x[6,3] +33 x[7,3] +6 x[8,3] +23 x[9,3] +26 x[10,3] +22 x[11,3] +27 x[12,3] +24 x[13,3] +11 x[14,3] +22 x[15,3] +21 x[16,3] +15 x[17,3] +17 x[18,3] +30 x[19,3] -53 y[3]  <= 0
 auto_c_000000024: +27 x[0,4] +35 x[1,4] +11 x[2,4] +11 x[3,4] +32 x[4,4] +28 x[5,4] +34 x[6,4] +33 x[7,4] +6 x[8,4] +23 x[9,4] +26 x[10,4] +22 x[11,4] +27 x[12,4] +24 x[13,4] +11 x[14,4] +22 x[15,4] +21 x[16,4] +15 x[17,4] +17 x[18,4] +30 x[19,4] -53 y[4]  <= 0
 auto_c_000000025: +27 x[0,5] +35 x[1,5] +11 x[2,5] +11 x[3,5] +32 x[4,5] +28 x[5,5] +34 x[6,5] +33 x[7,5] +6 x[8,5] +23 x[9,5] +26 x[10,5] +22 x[11,5] +27 x[12,5] +24 x[13,5] +11 x[14,5] +22 x[15,5] +21 x[16,5] +15 x[17,5] +17 x[18,5] +30 x[19,5] -36 y[5]  <= 0
 auto_c_000000026: +27 x[0,6] +35 x[1,6] +11 x[2,6] +11 x[3,6] +32 x[4,6] +28 x[5,6] +34 x[6,6] +33 x[7,6] +6 x[8,6] +23 x[9,6] +26 x[10,6] +22 x[11,6] +27 x[12,6] +24 x[13,6] +11 x[14,6] +22 x[15,6] +21 x[16,6] +15 x[17,6] +17 x[18,6] +30 x[19,6] -79 y[6]  <= 0
 auto_c_000000027: +27 x[0,7] +35 x[1,7] +11 x[2,7] +11 x[3,7] +32 x[4,7] +28 x[5,7] +34 x[6,7] +33 x[7,7] +6 x[8,7] +23 x[9,7] +26 x[10,7] +22 x[11,7] +27 x[12,7] +24 x[13,7] +11 x[14,7] +22 x[15,7] +21 x[16,7] +15 x[17,7] +17 x[18,7] +30 x[19,7] -72 y[7]  <= 0
 auto_c_000000028: +27 x[0,8] +35 x[1,8] +11 x[2,8] +11 x[3,8] +32 x[4,8] +28 x[5,8] +34 x[6,8] +33 x[7,8] +6 x[8,8] +23 x[9,8] +26 x[10,8] +22 x[11,8] +27 x[12,8] +24 x[13,8] +11 x[14,8] +22 x[15,8] +21 x[16,8] +15 x[17,8] +17 x[18,8] +30 x[19,8] -54 y[8]  <= 0
 auto_c_000000029: +27 x[0,9] +35 x[1,9] +11 x[2,9] +11 x[3,9] +32 x[4,9] +28 x[5,9] +34 x[6,9] +33 x[7,9] +6 x[8,9] +23 x[9,9] +26 x[10,9] +22 x[11,9] +27 x[12,9] +24 x[13,9] +11 x[14,9] +22 x[15,9] +21 x[16,9] +15 x[17,9] +17 x[18,9] +30 x[19,9] -30 y[9]  <= 0
Bounds
 0 <= x[0,0] <= 1
 0 <= x[1,0] <= 1
 0 <= x[2,0] <= 1
 0 <= x[3,0] <= 1
 0 <= x[4,0] <= 1
 0 <= x[5,0] <= 1
 0 <= x[6,0] <= 1
 0 <= x[7,0] <= 1
 0 <= x[8,0] <= 1
 0 <= x[9,0] <= 1
 0 <= x[10,0] <= 1
 0 <= x[11,0] <= 1
 0 <= x[12,0] <= 1
 0 <= x[13,0] <= 1
 0 <= x[14,0] <= 1
 0 <= x[15,0] <= 1
 0 <= x[16,0] <= 1
 0 <= x[17,0] <= 1
 0 <= x[18,0] <= 1
 0 <= x[19,0] <= 1
 0 <= x[0,1] <= 1
 0 <= x[1,1] <= 1
 0 <= x[2,1] <= 1
 0 <= x[3,1] <= 1
 0 <= x[4,1] <= 1
 0 <= x[5,1] <= 1
 0 <= x[6,1] <= 1
 0 <= x[7,1] <= 1
 0 <= x[8,1] <= 1
 0 <= x[9,1] <= 1
 0 <= x[10,1] <= 1
 0 <= x[11,1] <= 1
 0 <= x[12,1] <= 1
 0 <= x[13,1] <= 1
 0 <= x[14,1] <= 1
 0 <= x[15,1] <= 1
 0 <= x[16,1] <= 1
 0 <= x[17,1] <= 1
 0 <= x[18,1] <= 1
 0 <= x[19,1] <= 1
 0 <= x[0,2] <= 1
 0 <= x[1,2] <= 1
 0 <= x[2,2] <= 1
 0 <= x[3,2] <= 1
 0 <= x[4,2] <= 1
 0 <= x[5,2] <= 1
 0 <= x[6,2] <= 1
 0 <= x[7,2] <= 1
 0 <= x[8,2] <= 1
 0 <= x[9,2] <= 1
 0 <= x[10,2] <= 1
 0 <= x[11,2] <= 1
 0 <= x[12,2] <= 1
 0 <= x[13,2] <= 1
 0 <= x[14,2] <= 1
 0 <= x[15,2] <= 1
 0 <= x[16,2] <= 1
 0 <= x[17,2] <= 1
 0 <= x[18,2] <= 1
 0 <= x[19,2] <= 1
 0 <= x[0,3] <= 1
 0 <= x[1,3] <= 1
 0 <= x[2,3] <= 1
 0 <= x[3,3] <= 1
 0 <= x[4,3] <= 1
 0 <= x[5,3] <= 1
 0 <= x[6,3] <= 1
 0 <= x[7,3] <= 1
 0 <= x[8,3] <= 1
 0 <= x[9,3] <= 1
 0 <= x[10,3] <= 1
 0 <= x[11,3] <= 1
 0 <= x[12,3] <= 1
 0 <= x[13,3] <= 1
 0 <= x[14,3] <= 1
 0 <= x[15,3] <= 1
 0 <= x[16,3] <= 1
 0 <= x[17,3] <= 1
 0 <= x[18,3] <= 1
 0 <= x[19,3] <= 1
 0 <= x[0,4] <= 1
 0 <= x[1,4] <= 1
 0 <= x[2,4] <= 1
 0 <= x[3,4] <= 1
 0 <= x[4,4] <= 1
 0 <= x[5,4] <= 1
 0 <= x[6,4] <= 1
 0 <= x[7,4] <= 1
 0 <= x[8,4] <= 1
 0 <= x[9,4] <= 1
 0 <= x[10,4] <= 1
 0 <= x[11,4] <= 1
 0 <= x[12,4] <= 1
 0 <= x[13,4] <= 1
 0 <= x[14,4] <= 1
 0 <= x[15,4] <= 1
 0 <= x[16,4] <= 1
 0 <= x[17,4] <= 1
 0 <= x[18,4] <= 1
 0 <= x[19,4] <= 1
 0 <= x[0,5] <= 1
 0 <= x[1,5] <= 1
 0 <= x[2,5] <= 1
 0 <= x[3,5] <= 1
 0 <= x[4,5] <= 1
 0 <= x[5,5] <= 1
 0 <= x[6,5] <= 1
 0 <= x[7,5] <= 1
 0 <= x[8,5] <= 1
 0 <= x[9,5] <= 1
 0 <= x[10,5] <= 1
 0 <= x[11,5] <= 1
 0 <= x[12,5] <= 1
 0 <= x[13,5] <= 1
 0 <= x[14,5] <= 1
 0 <= x[15,5] <= 1
 0 <= x[16,5] <= 1
 0 <= x[17,5] <= 1
 0 <= x[18,5] <= 1
 0 <= x[19,5] <= 1
 0 <= x[0,6] <= 1
 0 <= x[1,6] <= 1
 0 <= x[2,6] <= 1
 0 <= x[3,6] <= 1
 0 <= x[4,6] <= 1
 0 <= x[5,6] <= 1
 0 <= x[6,6] <= 1
 0 <= x[7,6] <= 1
 0 <= x[8,6] <= 1
 0 <= x[9,6] <= 1
 0 <= x[10,6] <= 1
 0 <= x[11,6] <= 1
 0 <= x[12,6] <= 1
 0 <= x[13,6] <= 1
 0 <= x[14,6] <= 1
 0 <= x[15,6] <= 1
 0 <= x[16,6] <= 1
 0 <= x[17,6] <= 1
 0 <= x[18,6] <= 1
 0 <= x[19,6] <= 1
 0 <= x[0,7] <= 1
 0 <= x[1,7] <= 1
 0 <= x[2,7] <= 1
 0 <= x[3,7] <= 1
 0 <= x[4,7] <= 1
 0 <= x[5,7] <= 1
 0 <= x[6,7] <= 1
 0 <= x[7,7] <= 1
 0 <= x[8,7] <= 1
 0 <= x[9,7] <= 1
 0 <= x[10,7] <= 1
 0 <= x[11,7] <= 1
 0 <= x[12,7] <= 1
 0 <= x[13,7] <= 1
 0 <= x[14,7] <= 1
 0 <= x[15,7] <= 1
 0 <= x[16,7] <= 1
 0 <= x[17,7] <= 1
 0 <= x[18,7] <= 1
 0 <= x[19,7] <= 1
 0 <= x[0,8] <= 1
 0 <= x[1,8] <= 1
 0 <= x[2,8] <= 1
 0 <= x[3,8] <= 1
 0 <= x[4,8] <= 1
 0 <= x[5,8] <= 1
 0 <= x[6,8] <= 1
 0 <= x[7,8] <= 1
 0 <= x[8,8] <= 1
 0 <= x[9,8] <= 1
 0 <= x[10,8] <= 1
 0 <= x[11,8] <= 1
 0 <= x[12,8] <= 1
 0 <= x[13,8] <= 1
 0 <= x[14,8] <= 1
 0 <= x[15,8] <= 1
 0 <= x[16,8] <= 1
 0 <= x[17,8] <= 1
 0 <= x[18,8] <= 1
 0 <= x[19,8] <= 1
 0 <= x[0,9] <= 1
 0 <= x[1,9] <= 1
 0 <= x[2,9] <= 1
 0 <= x[3,9] <= 1
 0 <= x[4,9] <= 1
 0 <= x[5,9] <= 1
 0 <= x[6,9] <= 1
 0 <= x[7,9] <= 1
 0 <= x[8,9] <= 1
 0 <= x[9,9] <= 1
 0 <= x[10,9] <= 1
 0 <= x[11,9] <= 1
 0 <= x[12,9] <= 1
 0 <= x[13,9] <= 1
 0 <= x[14,9] <= 1
 0 <= x[15,9] <= 1
 0 <= x[16,9] <= 1
 0 <= x[17,9] <= 1
 0 <= x[18,9] <= 1
 0 <= x[19,9] <= 1
 0 <= y[0] <= 1
 0 <= y[1] <= 1
 0 <= y[2] <= 1
 0 <= y[3] <= 1
 0 <= y[4] <= 1
 0 <= y[5] <= 1
 0 <= y[6] <= 1
 0 <= y[7] <= 1
 0 <= y[8] <= 1
 0 <= y[9] <= 1
Binaries
 x[0,0]
 x[1,0]
 x[2,0]
 x[3,0]
 x[4,0]
 x[5,0]
 x[6,0]
 x[7,0]
 x[8,0]
 x[9,0]
 x[10,0]
 x[11,0]
 x[12,0]
 x[13,0]
 x[14,0]
 x[15,0]
 x[16,0]
 x[17,0]
 x[18,0]
 x[19,0]
 x[0,1]
 x[1,1]
 x[2,1]
 x[3,1]
 x[4,1]
 x[5,1]
 x[6,1]
 x[7,1]
 x[8,1]
 x[9,1]
 x[10,1]
 x[11,1]
 x[12,1]
 x[13,1]
 x[14,1]
 x[15,1]
 x[16,1]
 x[17,1]
 x[18,1]
 x[19,1]
 x[0,2]
 x[1,2]
 x[2,2]
 x[3,2]
 x[4,2]
 x[5,2]
 x[6,2]
 x[7,2]
 x[8,2]
 x[9,2]
 x[10,2]
 x[11,2]
 x[12,2]
 x[13,2]
 x[14,2]
 x[15,2]
 x[16,2]
 x[17,2]
 x[18,2]
 x[19,2]
 x[0,3]
 x[1,3]
 x[2,3]
 x[3,3]
 x[4,3]
 x[5,3]
 x[6,3]
 x[7,3]
 x[8,3]
 x[9,3]
 x[10,3]
 x[11,3]
 x[12,3]
 x[13,3]
 x[14,3]
 x[15,3]
 x[16,3]
 x[17,3]
 x[18,3]
 x[19,3]
 x[0,4]
 x[1,4]
 x[2,4]
 x[3,4]
 x[4,4]
 x[5,4]
 x[6,4]
 x[7,4]
 x[8,4]
 x[9,4]
 x[10,4]
 x[11,4]
 x[12,4]
 x[13,4]
 x[14,4]
 x[15,4]
 x[16,4]
 x[17,4]
 x[18,4]
 x[19,4]
 x[0,5]
 x[1,5]
 x[2,5]
 x[3,5]
 x[4,5]
 x[5,5]
 x[6,5]
 x[7,5]
 x[8,5]
 x[9,5]
 x[10,5]
 x[11,5]
 x[12,5]
 x[13,5]
 x[14,5]
 x[15,5]
 x[16,5]
 x[17,5]
 x[18,5]
 x[19,5]
 x[0,6]
 x[1,6]
 x[2,6]
 x[3,6]
 x[4,6]
 x[5,6]
 x[6,6]
 x[7,6]
 x[8,6]
 x[9,6]
 x[10,6]
 x[11,6]
 x[12,6]
 x[13,6]
 x[14,6]
 x[15,6]
 x[16,6]
 x[17,6]
 x[18,6]
 x[19,6]
 x[0,7]
 x[1,7]
 x[2,7]
 x[3,7]
 x[4,7]
 x[5,7]
 x[6,7]
 x[7,7]
 x[8,7]
 x[9,7]
 x[10,7]
 x[11,7]
 x[12,7]
 x[13,7]
 x[14,7]
 x[15,7]
 x[16,7]
 x[17,7]
 x[18,7]
 x[19,7]
 x[0,8]
 x[1,8]
 x[2,8]
 x[3,8]
 x[4,8]
 x[5,8]
 x[6,8]
 x[7,8]
 x[8,8]
 x[9,8]
 x[10,8]
 x[11,8]
 x[12,8]
 x[13,8]
 x[14,8]
 x[15,8]
 x[16,8]
 x[17,8]
 x[18,8]
 x[19,8]
 x[0,9]
 x[1,9]
 x[2,9]
 x[3,9]
 x[4,9]
 x[5,9]
 x[6,9]
 x[7,9]
 x[8,9]
 x[9,9]
 x[10,9]
 x[11,9]
 x[12,9]
 x[13,9]
 x[14,9]
 x[15,9]
 x[16,9]
 x[17,9]
 x[18,9]
 x[19,9]
 y[0]
 y[1]
 y[2]
 y[3]
 y[4]
 y[5]
 y[6]
 y[7]
 y[8]
 y[9]
End
